BEGIN IONS
PEPMASS=62.0600
CHARGE=1
MSLEVEL=2
SOURCE_INSTRUMENT=ESI-Orbitrap
IONMODE=Positive
ORGANISM=test1
NAME=test1
PI=Reza
DATACOLLECTOR=Reza
SMILES=ONCC
INCHI="InChI=1S/C2H7NO/c1-2-3-4/h3-4H,2H2,1H3"
INCHIAUX=N/A
PUBMED=na
SUBMITUSER=Reza
LIBRARYQUALITY=1
SPECTRUMID=REZA1
SCANS=1
32.0495	20
34.0287	30
62.0600	50
END IONS


BEGIN IONS
PEPMASS=76.0757
CHARGE=1
MSLEVEL=2
SOURCE_INSTRUMENT=ESI-Orbitrap
IONMODE=Positive
ORGANISM=test2
NAME=test2
PI=Reza
DATACOLLECTOR=Reza
SMILES=ON(C)CC
INCHI="InChI=1S/C3H9NO/c1-3-4(2)5/h5H,3H2,1-2H3"
INCHIAUX=N/A
PUBMED=na
SUBMITUSER=Reza
LIBRARYQUALITY=1
SPECTRUMID=REZA2
SCANS=1
46.0651	35
48.0444	10
76.0757	55
END IONS
